NAME: a280
DIMENSION: 18
EDGE_WEIGHT_TYPE: EUC_2D
NODE_COORD_SECTION
1 288 149
2 288 129
3 270 133
4 256 141
5 256 157
6 246 157
7 236 169
8 228 169
9 228 161
10 220 169
11 212 169
12 204 169
13 196 169
14 188 169
15 196 161
16 188 145
17 172 145
18 164 145
ACCEPTED_PROBABILITIES
0.0
0.68
0.7
0.25
0.22
0.58
0.77
0.62
0.49
0.37
0.22
0.18
0.69
0.07
0.42
0.71
0.85
0.03
OUTSOURCING_COSTS
0.0
6.91
4.82
3.55
1.47
6.67
6.58
1.92
5.46
0.46
4.37
3.86
5.05
6.73
6.57
1.67
5.44
0.63
